c turning on binary mode checking
c parsing input formula with 259840 variables and 1039919 clauses
c finished parsing, read 27549884 bytes from proof file
c detected empty clause; start verification via backward checking
c 27121 of 1039919 clauses in core                            
c 38070 of 674805 lemmas in core using 302550 resolution steps
c 0 RAT lemmas in core; 3009 redundant literals in core lemmas
s VERIFIED
c verification time: 3.064 seconds
